# def2-TZVP basis and auxillary basis sets. RIJCOSX approx for SCF portion. toluene solvent. largeprint essential for plotting MOs in avogadro.
! RIJCOSX WB97X def2-TZVP def2/J TIGHTSCF Grid5 FINALGrid6 CPCM(toluene) largeprint

#nprocs <number of cores> gives the number of cores to use
%pal
	nprocs 16
end

# The memory should be no more than 75% of what is given for the calculation. Imp! total memory = nprocs X maxcore
%maxcore 11800

%method
	RangeSepEXX True #apparently this needs to be here, dont know why
	RangeSepMu   0.1025 #this is only useful if you want to change the range separation w parameter for an RSH functional
end

#%scf
#	MaxIter 500
#	CNVDIIS 1
#	CNVSOSCF 1 
#end

%TDDFT
	nroots 10
	maxdim 5
	donto true
	dosoc true
	printlevel 3 #important for getting all the SOCME info
end

#for an xyzfile use:* xyzfile 0 1 input.xyz
#for xyz data use:
#*xyz 0 1
# xyz data...
#*
#change charge and multiplicity accordingly
* xyz 0 1

*

